p cnf 7230 17
6327 6475 6570 0
-6327 -6570 0
-6337 -6481 -6575 0
6335 6477 -6573 0
6333 6479 -6571 0
6337 -6576 0
-6335 -6574 0
-6333 -6572 0
6575 6576 0
6573 6574 0
6571 6572 0
6481 -6576 0
-6477 -6574 0
-6479 -6572 0
6483 -6578 0
6569 6570 0
-6569 -6570 0
